treewidth/data/ErreraGraph.gr
p tw 17 45
1 2
1 15
1 7
1 8
1 9
2 10
2 17
2 7
2 8
10 11
10 16
10 17
10 3
10 7
11 12
11 17
11 3
11 4
12 13
12 3
12 4
12 5
13 14
13 4
13 5
13 6
14 15
14 16
14 5
14 6
14 9
15 6
15 8
15 9
16 3
16 5
16 7
16 9
17 4
17 6
17 8
3 5
4 6
6 8
7 9
