treewidth/data/ErreraGraph.td
c width = 6, time = 0.074147
s td 10 7 17
b 1 3 5 6 10 14 16 17
b 2 6 9 10 14 15 16 17
b 3 6 8 9 10 15 16 17
b 4 7 8 9 10 15 16 17
b 5 2 7 8 9 10 15 17
b 6 1 2 7 8 9 15
b 7 3 5 6 10 13 14 17
b 8 3 5 6 10 12 13 17
b 9 3 6 10 11 12 13 17
b 10 4 6 11 12 13 17
5 6
4 5
3 4
2 3
1 2
9 10
8 9
7 8
1 7
